
%FILE DATA:	Soccer Computational Problem for MiniZinc Models	%
%AUTHOR:	Jack Wall	%
%CONTACT:  	116397063@umail.ucc.ie			%
%LAST UPDATE:	02/24/2020, 18:51:12						%
%DESCRIPTION: 	40 games played with 32 games left				%


n=9; %number of teams

%Games to play
games=[|1,8|8,4|8,3|7,1|2,4|7,8|3,2|9,7|7,9|1,4|4,8|8,1|6,8|1,2|4,3|5,9|6,9|6,3|9,5|5,3|1,9|7,5|3,9|7,6|1,3|1,6|3,4|1,5|9,4|9,1|6,4|2,3|];

%Initial points
iPoints=[11,16,10,4,16,12,17,10,9];

%POSITION CONSTRAINTS
% [|teamID, operator, position|...]
% operators index:
%  1 for =  operator
%  2 for >  operator
%  3 for >= operator
%  4 for <  operator
%  5 for <= operator
positionConstraints=[|9,3,1|7,5,2|1,5,3|2,4,5|6,2,4|3,5,6|];